NAME: rand_1/map0_480
TYPE: TSP
COMMENT: autogenerated using a wonderful map creator
DIMENSION: 600
EDGE_WEIGHT_TYPE: EUC_2D
NODE_COORD_SECTION
1 44.0 98.0
2 41.0 5.0
3 34.0 97.0
4 42.0 98.0
5 4.0 98.0
6 30.0 94.0
7 12.0 3.0
8 32.0 5.0
9 41.0 4.0
10 39.0 97.0
11 7.0 96.0
12 42.0 6.0
13 4.0 96.0
14 5.0 99.0
15 40.0 97.0
16 31.0 97.0
17 29.0 3.0
18 30.0 95.0
19 8.0 99.0
20 16.0 98.0
21 29.0 94.0
22 2.0 98.0
23 14.0 2.0
24 29.0 5.0
25 24.0 99.0
26 41.0 94.0
27 29.0 97.0
28 3.0 98.0
29 11.0 6.0
30 34.0 1.0
31 22.0 95.0
32 42.0 96.0
33 37.0 99.0
34 18.0 96.0
35 33.0 3.0
36 30.0 3.0
37 29.0 2.0
38 25.0 99.0
39 37.0 1.0
40 23.0 2.0
41 19.0 96.0
42 3.0 3.0
43 5.0 1.0
44 12.0 96.0
45 15.0 2.0
46 37.0 2.0
47 43.0 4.0
48 4.0 4.0
49 34.0 2.0
50 29.0 1.0
51 31.0 3.0
52 35.0 99.0
53 3.0 95.0
54 43.0 1.0
55 28.0 99.0
56 34.0 4.0
57 23.0 96.0
58 38.0 98.0
59 12.0 99.0
60 25.0 3.0
61 19.0 98.0
62 11.0 98.0
63 42.0 94.0
64 23.0 94.0
65 8.0 5.0
66 12.0 5.0
67 11.0 5.0
68 34.0 98.0
69 11.0 99.0
70 12.0 98.0
71 42.0 4.0
72 30.0 98.0
73 35.0 95.0
74 14.0 3.0
75 8.0 3.0
76 24.0 3.0
77 5.0 97.0
78 21.0 98.0
79 4.0 99.0
80 26.0 94.0
81 1.0 97.0
82 38.0 2.0
83 20.0 4.0
84 18.0 3.0
85 32.0 4.0
86 42.0 3.0
87 38.0 6.0
88 40.0 3.0
89 18.0 1.0
90 43.0 3.0
91 20.0 94.0
92 9.0 96.0
93 16.0 4.0
94 30.0 5.0
95 38.0 1.0
96 2.0 6.0
97 26.0 1.0
98 34.0 99.0
99 7.0 5.0
100 8.0 96.0
101 25.0 5.0
102 2.0 97.0
103 33.0 95.0
104 31.0 2.0
105 17.0 2.0
106 15.0 94.0
107 10.0 2.0
108 42.0 99.0
109 17.0 95.0
110 1.0 4.0
111 17.0 6.0
112 19.0 3.0
113 44.0 4.0
114 31.0 95.0
115 30.0 4.0
116 17.0 97.0
117 42.0 2.0
118 27.0 4.0
119 23.0 99.0
120 28.0 4.0
121 22.0 99.0
122 35.0 1.0
123 40.0 95.0
124 36.0 95.0
125 2.0 3.0
126 26.0 5.0
127 27.0 2.0
128 44.0 94.0
129 6.0 99.0
130 15.0 98.0
131 32.0 96.0
132 10.0 5.0
133 12.0 6.0
134 1.0 1.0
135 16.0 1.0
136 12.0 97.0
137 2.0 95.0
138 44.0 1.0
139 37.0 95.0
140 7.0 2.0
141 42.0 5.0
142 41.0 97.0
143 44.0 6.0
144 6.0 1.0
145 13.0 96.0
146 32.0 1.0
147 9.0 5.0
148 39.0 2.0
149 25.0 95.0
150 28.0 5.0
151 1.0 96.0
152 30.0 99.0
153 26.0 97.0
154 23.0 97.0
155 36.0 3.0
156 2.0 2.0
157 6.0 94.0
158 10.0 95.0
159 31.0 98.0
160 1.0 3.0
161 33.0 5.0
162 38.0 4.0
163 29.0 96.0
164 39.0 96.0
165 38.0 5.0
166 8.0 4.0
167 22.0 5.0
168 8.0 1.0
169 19.0 97.0
170 40.0 5.0
171 37.0 5.0
172 11.0 94.0
173 21.0 97.0
174 3.0 97.0
175 24.0 4.0
176 17.0 3.0
177 13.0 1.0
178 21.0 2.0
179 38.0 3.0
180 13.0 4.0
181 10.0 3.0
182 24.0 94.0
183 10.0 99.0
184 11.0 4.0
185 24.0 5.0
186 12.0 94.0
187 2.0 1.0
188 33.0 2.0
189 18.0 6.0
190 3.0 1.0
191 28.0 3.0
192 20.0 95.0
193 32.0 2.0
194 12.0 1.0
195 14.0 4.0
196 33.0 1.0
197 41.0 99.0
198 22.0 3.0
199 30.0 2.0
200 25.0 1.0
201 39.0 99.0
202 36.0 94.0
203 43.0 95.0
204 22.0 98.0
205 12.0 2.0
206 39.0 95.0
207 38.0 99.0
208 39.0 98.0
209 2.0 99.0
210 24.0 2.0
211 32.0 98.0
212 26.0 6.0
213 7.0 95.0
214 41.0 98.0
215 21.0 5.0
216 6.0 4.0
217 31.0 5.0
218 11.0 97.0
219 8.0 95.0
220 35.0 98.0
221 15.0 97.0
222 44.0 5.0
223 40.0 99.0
224 33.0 97.0
225 15.0 3.0
226 27.0 5.0
227 30.0 1.0
228 13.0 97.0
229 33.0 96.0
230 20.0 6.0
231 36.0 99.0
232 5.0 3.0
233 16.0 2.0
234 17.0 5.0
235 38.0 96.0
236 2.0 96.0
237 14.0 98.0
238 11.0 1.0
239 43.0 96.0
240 15.0 6.0
241 13.0 88.0
242 7.0 17.0
243 15.0 39.0
244 19.0 18.0
245 5.0 83.0
246 29.0 50.0
247 40.0 59.0
248 40.0 68.0
249 10.0 27.0
250 25.0 34.0
251 34.0 21.0
252 22.0 19.0
253 37.0 17.0
254 22.0 28.0
255 25.0 61.0
256 37.0 35.0
257 13.0 65.0
258 24.0 83.0
259 1.0 81.0
260 7.0 21.0
261 40.0 45.0
262 10.0 22.0
263 25.0 20.0
264 10.0 31.0
265 20.0 72.0
266 25.0 38.0
267 10.0 49.0
268 37.0 12.0
269 22.0 23.0
270 22.0 32.0
271 43.0 64.0
272 13.0 60.0
273 16.0 74.0
274 28.0 39.0
275 1.0 85.0
276 17.0 39.0
277 28.0 48.0
278 40.0 22.0
279 28.0 75.0
280 40.0 58.0
281 10.0 17.0
282 19.0 84.0
283 10.0 35.0
284 34.0 11.0
285 22.0 9.0
286 31.0 76.0
287 25.0 42.0
288 13.0 46.0
289 4.0 77.0
290 4.0 86.0
291 28.0 25.0
292 1.0 71.0
293 16.0 69.0
294 40.0 17.0
295 28.0 61.0
296 40.0 35.0
297 19.0 79.0
298 10.0 21.0
299 2.0 17.0
300 25.0 28.0
301 22.0 13.0
302 13.0 32.0
303 4.0 72.0
304 35.0 50.0
305 13.0 50.0
306 1.0 57.0
307 43.0 72.0
308 16.0 64.0
309 16.0 73.0
310 28.0 38.0
311 1.0 84.0
312 28.0 47.0
313 28.0 56.0
314 40.0 21.0
315 9.0 61.0
316 19.0 74.0
317 30.0 83.0
318 43.0 22.0
319 13.0 27.0
320 43.0 40.0
321 13.0 36.0
322 1.0 43.0
323 34.0 77.0
324 16.0 50.0
325 34.0 86.0
326 13.0 63.0
327 37.0 82.0
328 1.0 70.0
329 37.0 91.0
330 28.0 33.0
331 26.0 72.0
332 40.0 16.0
333 7.0 77.0
334 19.0 60.0
335 19.0 78.0
336 25.0 9.0
337 23.0 39.0
338 31.0 52.0
339 31.0 61.0
340 13.0 22.0
341 4.0 53.0
342 16.0 18.0
343 1.0 29.0
344 34.0 72.0
345 16.0 36.0
346 16.0 54.0
347 22.0 88.0
348 37.0 86.0
349 28.0 28.0
350 17.0 28.0
351 18.0 72.0
352 42.0 39.0
353 7.0 81.0
354 19.0 46.0
355 31.0 47.0
356 4.0 39.0
357 1.0 15.0
358 24.0 17.0
359 16.0 13.0
360 13.0 26.0
361 10.0 91.0
362 13.0 35.0
363 4.0 66.0
364 16.0 31.0
365 1.0 42.0
366 13.0 44.0
367 1.0 51.0
368 16.0 49.0
369 22.0 83.0
370 28.0 14.0
371 7.0 76.0
372 30.0 50.0
373 19.0 59.0
374 27.0 72.0
375 19.0 68.0
376 31.0 33.0
377 31.0 42.0
378 43.0 16.0
379 41.0 83.0
380 25.0 84.0
381 22.0 60.0
382 1.0 37.0
383 34.0 71.0
384 22.0 87.0
385 28.0 18.0
386 14.0 83.0
387 38.0 50.0
388 7.0 44.0
389 19.0 36.0
390 19.0 54.0
391 40.0 86.0
392 31.0 37.0
393 4.0 29.0
394 43.0 20.0
395 34.0 39.0
396 1.0 14.0
397 10.0 81.0
398 16.0 12.0
399 37.0 44.0
400 10.0 90.0
401 16.0 21.0
402 22.0 64.0
403 37.0 71.0
404 22.0 82.0
405 18.0 39.0
406 7.0 48.0
407 26.0 61.0
408 19.0 31.0
409 40.0 72.0
410 40.0 81.0
411 4.0 24.0
412 34.0 34.0
413 1.0 9.0
414 13.0 11.0
415 1.0 18.0
416 16.0 16.0
417 37.0 48.0
418 22.0 59.0
419 34.0 61.0
420 37.0 66.0
421 22.0 77.0
422 37.0 75.0
423 7.0 43.0
424 7.0 52.0
425 8.0 17.0
426 30.0 17.0
427 19.0 35.0
428 40.0 67.0
429 4.0 10.0
430 10.0 53.0
431 4.0 19.0
432 25.0 69.0
433 37.0 34.0
434 10.0 80.0
435 34.0 47.0
436 10.0 89.0
437 43.0 86.0
438 38.0 17.0
439 14.0 50.0
440 3.0 50.0
441 37.0 61.0
442 22.0 72.0
443 13.0 91.0
444 7.0 29.0
445 28.0 79.0
446 7.0 56.0
447 19.0 30.0
448 40.0 62.0
449 33.0 50.0
450 34.0 15.0
451 25.0 55.0
452 10.0 66.0
453 22.0 31.0
454 34.0 33.0
455 37.0 29.0
456 22.0 40.0
457 37.0 38.0
458 37.0 47.0
459 43.0 81.0
460 22.0 58.0
461 7.0 15.0
462 7.0 33.0
463 7.0 42.0
464 19.0 25.0
465 28.0 92.0
466 40.0 66.0
467 10.0 34.0
468 2.0 39.0
469 25.0 50.0
470 10.0 70.0
471 22.0 35.0
472 37.0 42.0
473 22.0 53.0
474 24.0 72.0
475 35.0 72.0
476 43.0 85.0
477 13.0 81.0
478 13.0 90.0
479 16.0 86.0
480 28.0 51.0
481 18.0 28.0
482 28.0 60.0
483 7.0 37.0
484 28.0 69.0
485 19.0 11.0
486 28.0 78.0
487 6.0 50.0
488 41.0 17.0
489 40.0 61.0
490 25.0 18.0
491 31.0 79.0
492 37.0 10.0
493 37.0 19.0
494 37.0 28.0
495 43.0 62.0
496 13.0 67.0
497 43.0 89.0
498 16.0 72.0
499 7.0 23.0
500 28.0 55.0
501 40.0 56.0
502 33.0 17.0
503 21.0 61.0
504 10.0 33.0
505 25.0 31.0
506 31.0 83.0
507 43.0 48.0
508 37.0 14.0
509 22.0 25.0
510 31.0 92.0
511 13.0 53.0
512 1.0 69.0
513 16.0 67.0
514 28.0 32.0
515 13.0 80.0
516 13.0 89.0
517 17.0 50.0
518 28.0 50.0
519 40.0 24.0
520 19.0 77.0
521 25.0 26.0
522 10.0 37.0
523 31.0 69.0
524 25.0 35.0
525 31.0 78.0
526 13.0 39.0
527 31.0 87.0
528 35.0 39.0
529 1.0 55.0
530 16.0 53.0
531 1.0 64.0
532 16.0 62.0
533 13.0 75.0
534 28.0 36.0
535 16.0 80.0
536 40.0 10.0
537 28.0 54.0
538 5.0 61.0
539 40.0 28.0
540 40.0 37.0
541 7.0 89.0
542 19.0 72.0
543 8.0 72.0
544 19.0 90.0
545 4.0 56.0
546 31.0 82.0
547 13.0 43.0
548 43.0 56.0
549 16.0 39.0
550 4.0 74.0
551 1.0 50.0
552 36.0 17.0
553 16.0 48.0
554 35.0 61.0
555 16.0 57.0
556 28.0 22.0
557 37.0 89.0
558 16.0 75.0
559 10.0 9.0
560 31.0 41.0
561 10.0 18.0
562 19.0 85.0
563 43.0 15.0
564 31.0 59.0
565 4.0 42.0
566 13.0 20.0
567 31.0 68.0
568 13.0 29.0
569 1.0 36.0
570 13.0 38.0
571 43.0 51.0
572 16.0 34.0
573 28.0 17.0
574 28.0 26.0
575 15.0 83.0
576 7.0 79.0
577 19.0 53.0
578 31.0 36.0
579 43.0 10.0
580 12.0 50.0
581 13.0 15.0
582 31.0 63.0
583 13.0 24.0
584 1.0 22.0
585 4.0 55.0
586 34.0 65.0
587 16.0 29.0
588 4.0 73.0
589 34.0 74.0
590 16.0 38.0
591 1.0 49.0
592 16.0 47.0
593 22.0 81.0
594 1.0 58.0
595 34.0 83.0
596 28.0 21.0
597 37.0 88.0
598 9.0 17.0
599 7.0 74.0
600 39.0 17.0
601 18.0 83.0
602 7.0 83.0
603 19.0 57.0
604 4.0 32.0
605 13.0 19.0
606 43.0 32.0
607 24.0 28.0
608 4.0 59.0
609 25.0 91.0
610 1.0 35.0
611 1.0 44.0
612 22.0 76.0
613 34.0 87.0
614 37.0 92.0
615 7.0 51.0
616 7.0 60.0
617 19.0 43.0
618 31.0 8.0
619 11.0 39.0
620 7.0 87.0
621 40.0 84.0
622 31.0 26.0
623 39.0 39.0
624 4.0 18.0
625 4.0 27.0
626 33.0 72.0
627 13.0 14.0
628 43.0 27.0
629 4.0 45.0
630 25.0 77.0
631 13.0 23.0
632 10.0 88.0
633 34.0 55.0
634 1.0 30.0
635 25.0 86.0
636 16.0 28.0
637 34.0 73.0
638 34.0 82.0
639 22.0 80.0
640 19.0 20.0
641 7.0 64.0
642 19.0 38.0
643 40.0 79.0
644 19.0 56.0
645 40.0 88.0
646 12.0 17.0
647 23.0 17.0
648 34.0 41.0
649 1.0 16.0
650 37.0 55.0
651 34.0 68.0
652 22.0 75.0
653 37.0 73.0
654 7.0 41.0
655 7.0 59.0
656 7.0 68.0
657 19.0 33.0
658 40.0 65.0
659 19.0 42.0
660 6.0 72.0
661 19.0 51.0
662 40.0 83.0
663 4.0 8.0
664 40.0 92.0
665 25.0 49.0
666 43.0 8.0
667 4.0 26.0
668 4.0 35.0
669 22.0 34.0
670 10.0 78.0
671 22.0 43.0
672 34.0 45.0
673 2.0 83.0
674 37.0 50.0
675 34.0 63.0
676 37.0 59.0
677 7.0 27.0
678 19.0 10.0
679 28.0 77.0
680 19.0 37.0
681 40.0 78.0
682 33.0 39.0
683 21.0 83.0
684 4.0 12.0
685 34.0 13.0
686 41.0 61.0
687 4.0 21.0
688 22.0 29.0
689 37.0 36.0
690 22.0 56.0
691 7.0 13.0
692 14.0 61.0
693 7.0 22.0
694 16.0 89.0
695 7.0 31.0
696 7.0 40.0
697 28.0 72.0
698 17.0 72.0
699 7.0 49.0
700 19.0 14.0
701 40.0 46.0
702 19.0 23.0
703 40.0 55.0
704 40.0 82.0
705 25.0 30.0
706 25.0 39.0
707 4.0 16.0
708 22.0 15.0
709 10.0 50.0
710 25.0 48.0
711 33.0 61.0
712 22.0 24.0
713 10.0 59.0
714 25.0 57.0
715 34.0 35.0
716 37.0 31.0
717 10.0 77.0
718 43.0 74.0
719 13.0 79.0
720 43.0 92.0
START_DEPOT_SECTION
1
2
3
4
5
6
7
8
9
10
11
12
13
14
15
16
17
18
19
20
21
22
23
24
25
26
27
28
29
30
31
32
33
34
35
36
37
38
39
40
41
42
43
44
45
46
47
48
49
50
51
52
53
54
55
56
57
58
59
60
61
62
63
64
65
66
67
68
69
70
71
72
73
74
75
76
77
78
79
80
81
82
83
84
85
86
87
88
89
90
91
92
93
94
95
96
97
98
99
100
101
102
103
104
105
106
107
108
109
110
111
112
113
114
115
116
117
118
119
120
-1
END_DEPOT_SECTION
121
122
123
124
125
126
127
128
129
130
131
132
133
134
135
136
137
138
139
140
141
142
143
144
145
146
147
148
149
150
151
152
153
154
155
156
157
158
159
160
161
162
163
164
165
166
167
168
169
170
171
172
173
174
175
176
177
178
179
180
181
182
183
184
185
186
187
188
189
190
191
192
193
194
195
196
197
198
199
200
201
202
203
204
205
206
207
208
209
210
211
212
213
214
215
216
217
218
219
220
221
222
223
224
225
226
227
228
229
230
231
232
233
234
235
236
237
238
239
240
-1
EOF
